
Gurobi 11.0.3 (linux64, gurobi_cl) logging started Tue Oct 22 06:15:21 2024

Set parameter Username
Set parameter LogFile to value "gurobi.log"
Using license file /home/alex-charly/gurobi.lic
Academic license - for non-commercial use only - expires 2025-10-22
